n_samples = 20;

conductor_coords = [0, 0, 0, 0, 0, 0, 0, 0, 0, 0, 0, 0, 0, 0, 0, 0, 0, 0, 0, 0];
weight_coords = [5361, 6648, 5379, 7477, 18713, 5371, 5281, 5394, 5440, 35187, 5362, 5304, 5357, 5438, 5309, 5483, 5216, 5426, 5308, 5388];
level_coords = [33, 3, 20, 45, 44, 39, 22, 30, 10, 0, 18, 30, 23, 33, 40, 4, 26, 27, 12, 31];
traits_coords = [1, 1, 1, 1, 0, 1, 1, 1, 1, 0, 1, 1, 1, 1, 1, 1, 1, 1, 1, 1];
key_primes_coords = [29, 14, 16, 6, 20, 8, 11, 0, 15, 2, 30, 3, 25, 13, 8, 27, 8, 1, 7, 25];
complexity_coords = [12, 12, 12, 12, 14, 12, 12, 12, 12, 15, 12, 12, 12, 12, 12, 12, 12, 12, 12, 12];
leech_coords = [5361, 6648, 5379, 7477, 18713, 5371, 5281, 5394, 5440, 35187, 5362, 5304, 5357, 5438, 5309, 5483, 5216, 5426, 5308, 5388];
conway_coords = [5361, 6648, 5379, 7477, 18713, 5371, 5281, 5394, 5440, 35187, 5362, 5304, 5357, 5438, 5309, 5483, 5216, 5426, 5308, 5388];
fischer_coords = [5361, 6648, 5379, 7477, 18713, 5371, 5281, 5394, 5440, 35187, 5362, 5304, 5357, 5438, 5309, 5483, 5216, 5426, 5308, 5388];

emoji_labels = [2, 2, 2, 3, 4, 2, 2, 2, 2, 4, 2, 2, 2, 2, 2, 2, 2, 2, 2, 2];
